c nIsolatedPIs 0
c maxPI 32
p cnf 285 760
c gate 33 -16 -32 0
-16 -33 0
-32 -33 0
16 32 33 0
c gate 34 16 32 0
16 -34 0
32 -34 0
-16 -32 34 0
c gate 35 -33 -34 0
-33 -35 0
-34 -35 0
33 34 35 0
c gate 36 15 31 0
15 -36 0
31 -36 0
-15 -31 36 0
c gate 37 -14 -30 0
-14 -37 0
-30 -37 0
14 30 37 0
c gate 38 14 -30 0
14 -38 0
-30 -38 0
-14 30 38 0
c gate 39 -14 30 0
-14 -39 0
30 -39 0
14 -30 39 0
c gate 40 -38 -39 0
-38 -40 0
-39 -40 0
38 39 40 0
c gate 41 -13 -29 0
-13 -41 0
-29 -41 0
13 29 41 0
c gate 42 13 29 0
13 -42 0
29 -42 0
-13 -29 42 0
c gate 43 12 28 0
12 -43 0
28 -43 0
-12 -28 43 0
c gate 44 -7 -23 0
-7 -44 0
-23 -44 0
7 23 44 0
c gate 45 7 23 0
7 -45 0
23 -45 0
-7 -23 45 0
c gate 46 -44 -45 0
-44 -46 0
-45 -46 0
44 45 46 0
c gate 47 -6 -22 0
-6 -47 0
-22 -47 0
6 22 47 0
c gate 48 6 22 0
6 -48 0
22 -48 0
-6 -22 48 0
c gate 49 -47 -48 0
-47 -49 0
-48 -49 0
47 48 49 0
c gate 50 5 21 0
5 -50 0
21 -50 0
-5 -21 50 0
c gate 51 5 -21 0
5 -51 0
-21 -51 0
-5 21 51 0
c gate 52 -5 21 0
-5 -52 0
21 -52 0
5 -21 52 0
c gate 53 -51 -52 0
-51 -53 0
-52 -53 0
51 52 53 0
c gate 54 4 20 0
4 -54 0
20 -54 0
-4 -20 54 0
c gate 55 -4 -20 0
-4 -55 0
-20 -55 0
4 20 55 0
c gate 56 3 19 0
3 -56 0
19 -56 0
-3 -19 56 0
c gate 57 1 17 0
1 -57 0
17 -57 0
-1 -17 57 0
c gate 58 2 18 0
2 -58 0
18 -58 0
-2 -18 58 0
c gate 59 -57 -58 0
-57 -59 0
-58 -59 0
57 58 59 0
c gate 60 -3 19 0
-3 -60 0
19 -60 0
3 -19 60 0
c gate 61 3 -19 0
3 -61 0
-19 -61 0
-3 19 61 0
c gate 62 -60 -61 0
-60 -62 0
-61 -62 0
60 61 62 0
c gate 63 -59 -62 0
-59 -63 0
-62 -63 0
59 62 63 0
c gate 64 -56 -63 0
-56 -64 0
-63 -64 0
56 63 64 0
c gate 65 -55 -64 0
-55 -65 0
-64 -65 0
55 64 65 0
c gate 66 -54 -65 0
-54 -66 0
-65 -66 0
54 65 66 0
c gate 67 -2 -18 0
-2 -67 0
-18 -67 0
2 18 67 0
c gate 68 -56 67 0
-56 -68 0
67 -68 0
56 -67 68 0
c gate 69 -54 68 0
-54 -69 0
68 -69 0
54 -68 69 0
c gate 70 -66 -69 0
-66 -70 0
-69 -70 0
66 69 70 0
c gate 71 -53 70 0
-53 -71 0
70 -71 0
53 -70 71 0
c gate 72 -50 -71 0
-50 -72 0
-71 -72 0
50 71 72 0
c gate 73 49 72 0
49 -73 0
72 -73 0
-49 -72 73 0
c gate 74 -47 -73 0
-47 -74 0
-73 -74 0
47 73 74 0
c gate 75 46 -74 0
46 -75 0
-74 -75 0
-46 74 75 0
c gate 76 -8 -24 0
-8 -76 0
-24 -76 0
8 24 76 0
c gate 77 -44 -76 0
-44 -77 0
-76 -77 0
44 76 77 0
c gate 78 -75 77 0
-75 -78 0
77 -78 0
75 -77 78 0
c gate 79 8 24 0
8 -79 0
24 -79 0
-8 -24 79 0
c gate 80 9 25 0
9 -80 0
25 -80 0
-9 -25 80 0
c gate 81 -79 -80 0
-79 -81 0
-80 -81 0
79 80 81 0
c gate 82 -78 81 0
-78 -82 0
81 -82 0
78 -81 82 0
c gate 83 -10 -26 0
-10 -83 0
-26 -83 0
10 26 83 0
c gate 84 -9 -25 0
-9 -84 0
-25 -84 0
9 25 84 0
c gate 85 -83 -84 0
-83 -85 0
-84 -85 0
83 84 85 0
c gate 86 -82 85 0
-82 -86 0
85 -86 0
82 -85 86 0
c gate 87 10 26 0
10 -87 0
26 -87 0
-10 -26 87 0
c gate 88 11 27 0
11 -88 0
27 -88 0
-11 -27 88 0
c gate 89 -87 -88 0
-87 -89 0
-88 -89 0
87 88 89 0
c gate 90 -86 89 0
-86 -90 0
89 -90 0
86 -89 90 0
c gate 91 -11 -27 0
-11 -91 0
-27 -91 0
11 27 91 0
c gate 92 -12 -28 0
-12 -92 0
-28 -92 0
12 28 92 0
c gate 93 -91 -92 0
-91 -93 0
-92 -93 0
91 92 93 0
c gate 94 -90 93 0
-90 -94 0
93 -94 0
90 -93 94 0
c gate 95 -43 -94 0
-43 -95 0
-94 -95 0
43 94 95 0
c gate 96 -42 95 0
-42 -96 0
95 -96 0
42 -95 96 0
c gate 97 -41 -96 0
-41 -97 0
-96 -97 0
41 96 97 0
c gate 98 -40 -97 0
-40 -98 0
-97 -98 0
40 97 98 0
c gate 99 -37 -98 0
-37 -99 0
-98 -99 0
37 98 99 0
c gate 100 -15 31 0
-15 -100 0
31 -100 0
15 -31 100 0
c gate 101 15 -31 0
15 -101 0
-31 -101 0
-15 31 101 0
c gate 102 -100 -101 0
-100 -102 0
-101 -102 0
100 101 102 0
c gate 103 99 -102 0
99 -103 0
-102 -103 0
-99 102 103 0
c gate 104 -36 -103 0
-36 -104 0
-103 -104 0
36 103 104 0
c gate 105 35 104 0
35 -105 0
104 -105 0
-35 -104 105 0
c gate 106 -35 -104 0
-35 -106 0
-104 -106 0
35 104 106 0
c gate 107 -105 -106 0
-105 -107 0
-106 -107 0
105 106 107 0
c gate 108 -42 -43 0
-42 -108 0
-43 -108 0
42 43 108 0
c gate 109 -40 108 0
-40 -109 0
108 -109 0
40 -108 109 0
c gate 110 -37 -109 0
-37 -110 0
-109 -110 0
37 109 110 0
c gate 111 -36 -110 0
-36 -111 0
-110 -111 0
36 110 111 0
c gate 112 35 111 0
35 -112 0
111 -112 0
-35 -111 112 0
c gate 113 -35 -111 0
-35 -113 0
-111 -113 0
35 111 113 0
c gate 114 -112 -113 0
-112 -114 0
-113 -114 0
112 113 114 0
c gate 115 107 -114 0
107 -115 0
-114 -115 0
-107 114 115 0
c gate 116 -107 114 0
-107 -116 0
114 -116 0
107 -114 116 0
c gate 117 -115 -116 0
-115 -117 0
-116 -117 0
115 116 117 0
c gate 118 35 -117 0
35 -118 0
-117 -118 0
-35 117 118 0
c gate 119 12 -28 0
12 -119 0
-28 -119 0
-12 28 119 0
c gate 120 11 -27 0
11 -120 0
-27 -120 0
-11 27 120 0
c gate 121 -119 -120 0
-119 -121 0
-120 -121 0
119 120 121 0
c gate 122 -10 26 0
-10 -122 0
26 -122 0
10 -26 122 0
c gate 123 -9 25 0
-9 -123 0
25 -123 0
9 -25 123 0
c gate 124 7 -23 0
7 -124 0
-23 -124 0
-7 23 124 0
c gate 125 6 -22 0
6 -125 0
-22 -125 0
-6 22 125 0
c gate 126 -2 18 0
-2 -126 0
18 -126 0
2 -18 126 0
c gate 127 -1 17 0
-1 -127 0
17 -127 0
1 -17 127 0
c gate 128 -126 -127 0
-126 -128 0
-127 -128 0
126 127 128 0
c gate 129 2 -18 0
2 -129 0
-18 -129 0
-2 18 129 0
c gate 130 -61 -129 0
-61 -130 0
-129 -130 0
61 129 130 0
c gate 131 -128 130 0
-128 -131 0
130 -131 0
128 -130 131 0
c gate 132 -60 -131 0
-60 -132 0
-131 -132 0
60 131 132 0
c gate 133 4 -20 0
4 -133 0
-20 -133 0
-4 20 133 0
c gate 134 -132 -133 0
-132 -134 0
-133 -134 0
132 133 134 0
c gate 135 -4 20 0
-4 -135 0
20 -135 0
4 -20 135 0
c gate 136 -134 -135 0
-134 -136 0
-135 -136 0
134 135 136 0
c gate 137 -51 -136 0
-51 -137 0
-136 -137 0
51 136 137 0
c gate 138 -49 -52 0
-49 -138 0
-52 -138 0
49 52 138 0
c gate 139 -137 138 0
-137 -139 0
138 -139 0
137 -138 139 0
c gate 140 -125 -139 0
-125 -140 0
-139 -140 0
125 139 140 0
c gate 141 -46 -140 0
-46 -141 0
-140 -141 0
46 140 141 0
c gate 142 -124 -141 0
-124 -142 0
-141 -142 0
124 141 142 0
c gate 143 -76 -79 0
-76 -143 0
-79 -143 0
76 79 143 0
c gate 144 -142 -143 0
-142 -144 0
-143 -144 0
142 143 144 0
c gate 145 8 -24 0
8 -145 0
-24 -145 0
-8 24 145 0
c gate 146 9 -25 0
9 -146 0
-25 -146 0
-9 25 146 0
c gate 147 -145 -146 0
-145 -147 0
-146 -147 0
145 146 147 0
c gate 148 -144 147 0
-144 -148 0
147 -148 0
144 -147 148 0
c gate 149 -123 -148 0
-123 -149 0
-148 -149 0
123 148 149 0
c gate 150 -83 -87 0
-83 -150 0
-87 -150 0
83 87 150 0
c gate 151 -149 -150 0
-149 -151 0
-150 -151 0
149 150 151 0
c gate 152 -122 -151 0
-122 -152 0
-151 -152 0
122 151 152 0
c gate 153 121 -152 0
121 -153 0
-152 -153 0
-121 152 153 0
c gate 154 -88 -91 0
-88 -154 0
-91 -154 0
88 91 154 0
c gate 155 121 154 0
121 -155 0
154 -155 0
-121 -154 155 0
c gate 156 -41 -42 0
-41 -156 0
-42 -156 0
41 42 156 0
c gate 157 -12 28 0
-12 -157 0
28 -157 0
12 -28 157 0
c gate 158 -156 -157 0
-156 -158 0
-157 -158 0
156 157 158 0
c gate 159 -155 158 0
-155 -159 0
158 -159 0
155 -158 159 0
c gate 160 153 159 0
153 -160 0
159 -160 0
-153 -159 160 0
c gate 161 152 154 0
152 -161 0
154 -161 0
-152 -154 161 0
c gate 162 -152 -154 0
-152 -162 0
-154 -162 0
152 154 162 0
c gate 163 -161 -162 0
-161 -163 0
-162 -163 0
161 162 163 0
c gate 164 10 -26 0
10 -164 0
-26 -164 0
-10 26 164 0
c gate 165 -147 -150 0
-147 -165 0
-150 -165 0
147 150 165 0
c gate 166 -164 -165 0
-164 -166 0
-165 -166 0
164 165 166 0
c gate 167 154 -166 0
154 -167 0
-166 -167 0
-154 166 167 0
c gate 168 -163 -167 0
-163 -168 0
-167 -168 0
163 167 168 0
c gate 169 147 150 0
147 -169 0
150 -169 0
-147 -150 169 0
c gate 170 -165 -169 0
-165 -170 0
-169 -170 0
165 169 170 0
c gate 171 149 150 0
149 -171 0
150 -171 0
-149 -150 171 0
c gate 172 -151 -171 0
-151 -172 0
-171 -172 0
151 171 172 0
c gate 173 170 172 0
170 -173 0
172 -173 0
-170 -172 173 0
c gate 174 -170 -172 0
-170 -174 0
-172 -174 0
170 172 174 0
c gate 175 -123 -146 0
-123 -175 0
-146 -175 0
123 146 175 0
c gate 176 144 175 0
144 -176 0
175 -176 0
-144 -175 176 0
c gate 177 -141 -144 0
-141 -177 0
-144 -177 0
141 144 177 0
c gate 178 -50 53 0
-50 -178 0
53 -178 0
50 -53 178 0
c gate 179 -136 178 0
-136 -179 0
178 -179 0
136 -178 179 0
c gate 180 49 179 0
49 -180 0
179 -180 0
-49 -179 180 0
c gate 181 -139 -180 0
-139 -181 0
-180 -181 0
139 180 181 0
c gate 182 -141 181 0
-141 -182 0
181 -182 0
141 -181 182 0
c gate 183 -178 182 0
-178 -183 0
182 -183 0
178 -182 183 0
c gate 184 -118 183 0
-118 -184 0
183 -184 0
118 -183 184 0
c gate 185 75 143 0
75 -185 0
143 -185 0
-75 -143 185 0
c gate 186 57 -126 0
57 -186 0
-126 -186 0
-57 126 186 0
c gate 187 -129 186 0
-129 -187 0
186 -187 0
129 -186 187 0
c gate 188 53 -70 0
53 -188 0
-70 -188 0
-53 70 188 0
c gate 189 -71 -188 0
-71 -189 0
-188 -189 0
71 188 189 0
c gate 190 50 -66 0
50 -190 0
-66 -190 0
-50 66 190 0
c gate 191 -50 66 0
-50 -191 0
66 -191 0
50 -66 191 0
c gate 192 -190 -191 0
-190 -192 0
-191 -192 0
190 191 192 0
c gate 193 189 192 0
189 -193 0
192 -193 0
-189 -192 193 0
c gate 194 -189 -192 0
-189 -194 0
-192 -194 0
189 192 194 0
c gate 195 -193 -194 0
-193 -195 0
-194 -195 0
193 194 195 0
c gate 196 57 67 0
57 -196 0
67 -196 0
-57 -67 196 0
c gate 197 62 196 0
62 -197 0
196 -197 0
-62 -196 197 0
c gate 198 -54 -55 0
-54 -198 0
-55 -198 0
54 55 198 0
c gate 199 68 -198 0
68 -199 0
-198 -199 0
-68 198 199 0
c gate 200 -64 199 0
-64 -200 0
199 -200 0
64 -199 200 0
c gate 201 -197 -200 0
-197 -201 0
-200 -201 0
197 200 201 0
c gate 202 195 201 0
195 -202 0
201 -202 0
-195 -201 202 0
c gate 203 -49 66 0
-49 -203 0
66 -203 0
49 -66 203 0
c gate 204 72 -203 0
72 -204 0
-203 -204 0
-72 203 204 0
c gate 205 202 -204 0
202 -205 0
-204 -205 0
-202 204 205 0
c gate 206 187 205 0
187 -206 0
205 -206 0
-187 -205 206 0
c gate 207 -75 206 0
-75 -207 0
206 -207 0
75 -206 207 0
c gate 208 -185 -207 0
-185 -208 0
-207 -208 0
185 207 208 0
c gate 209 -99 102 0
-99 -209 0
102 -209 0
99 -102 209 0
c gate 210 -103 -209 0
-103 -210 0
-209 -210 0
103 209 210 0
c gate 211 102 110 0
102 -211 0
110 -211 0
-102 -110 211 0
c gate 212 -102 -110 0
-102 -212 0
-110 -212 0
102 110 212 0
c gate 213 -211 -212 0
-211 -213 0
-212 -213 0
211 212 213 0
c gate 214 -210 -213 0
-210 -214 0
-213 -214 0
210 213 214 0
c gate 215 210 213 0
210 -215 0
213 -215 0
-210 -213 215 0
c gate 216 43 156 0
43 -216 0
156 -216 0
-43 -156 216 0
c gate 217 -95 -216 0
-95 -217 0
-216 -217 0
95 216 217 0
c gate 218 -215 -217 0
-215 -218 0
-217 -218 0
215 217 218 0
c gate 219 -214 218 0
-214 -219 0
218 -219 0
214 -218 219 0
c gate 220 117 219 0
117 -220 0
219 -220 0
-117 -219 220 0
c gate 221 208 220 0
208 -221 0
220 -221 0
-208 -220 221 0
c gate 222 150 154 0
150 -222 0
154 -222 0
-150 -154 222 0
c gate 223 -119 -157 0
-119 -223 0
-157 -223 0
119 157 223 0
c gate 224 -175 -223 0
-175 -224 0
-223 -224 0
175 223 224 0
c gate 225 222 224 0
222 -225 0
224 -225 0
-222 -224 225 0
c gate 226 185 -225 0
185 -226 0
-225 -226 0
-185 225 226 0
c gate 227 220 -226 0
220 -227 0
-226 -227 0
-220 226 227 0
c gate 228 40 -108 0
40 -228 0
-108 -228 0
-40 108 228 0
c gate 229 -109 -228 0
-109 -229 0
-228 -229 0
109 228 229 0
c gate 230 40 97 0
40 -230 0
97 -230 0
-40 -97 230 0
c gate 231 -98 -230 0
-98 -231 0
-230 -231 0
98 230 231 0
c gate 232 -229 231 0
-229 -232 0
231 -232 0
229 -231 232 0
c gate 233 -95 -156 0
-95 -233 0
-156 -233 0
95 156 233 0
c gate 234 -232 233 0
-232 -234 0
233 -234 0
232 -233 234 0
c gate 235 229 -231 0
229 -235 0
-231 -235 0
-229 231 235 0
c gate 236 -234 -235 0
-234 -236 0
-235 -236 0
234 235 236 0
c gate 237 -215 236 0
-215 -237 0
236 -237 0
215 -236 237 0
c gate 238 -214 -237 0
-214 -238 0
-237 -238 0
214 237 238 0
c gate 239 -115 238 0
-115 -239 0
238 -239 0
115 -238 239 0
c gate 240 -116 -239 0
-116 -240 0
-239 -240 0
116 239 240 0
c gate 241 -227 240 0
-227 -241 0
240 -241 0
227 -240 241 0
c gate 242 -221 -241 0
-221 -242 0
-241 -242 0
221 241 242 0
c gate 243 184 -242 0
184 -243 0
-242 -243 0
-184 242 243 0
c gate 244 -112 183 0
-112 -244 0
183 -244 0
112 -183 244 0
c gate 245 105 244 0
105 -245 0
244 -245 0
-105 -244 245 0
c gate 246 179 182 0
179 -246 0
182 -246 0
-179 -182 246 0
c gate 247 46 139 0
46 -247 0
139 -247 0
-46 -139 247 0
c gate 248 -246 -247 0
-246 -248 0
-247 -248 0
246 247 248 0
c gate 249 -245 248 0
-245 -249 0
248 -249 0
245 -248 249 0
c gate 250 -184 249 0
-184 -250 0
249 -250 0
184 -249 250 0
c gate 251 -243 -250 0
-243 -251 0
-250 -251 0
243 250 251 0
c gate 252 177 -251 0
177 -252 0
-251 -252 0
-177 251 252 0
c gate 253 -176 -252 0
-176 -253 0
-252 -253 0
176 252 253 0
c gate 254 -174 -253 0
-174 -254 0
-253 -254 0
174 253 254 0
c gate 255 -173 -254 0
-173 -255 0
-254 -255 0
173 254 255 0
c gate 256 -168 -255 0
-168 -256 0
-255 -256 0
168 255 256 0
c gate 257 -152 167 0
-152 -257 0
167 -257 0
152 -167 257 0
c gate 258 -162 -257 0
-162 -258 0
-257 -258 0
162 257 258 0
c gate 259 -256 258 0
-256 -259 0
258 -259 0
256 -258 259 0
c gate 260 -160 -259 0
-160 -260 0
-259 -260 0
160 259 260 0
c gate 261 40 102 0
40 -261 0
102 -261 0
-40 -102 261 0
c gate 262 160 -261 0
160 -262 0
-261 -262 0
-160 261 262 0
c gate 263 13 -29 0
13 -263 0
-29 -263 0
-13 29 263 0
c gate 264 -38 -263 0
-38 -264 0
-263 -264 0
38 263 264 0
c gate 265 153 264 0
153 -265 0
264 -265 0
-153 -264 265 0
c gate 266 102 -265 0
102 -266 0
-265 -266 0
-102 265 266 0
c gate 267 -159 264 0
-159 -267 0
264 -267 0
159 -264 267 0
c gate 268 -39 -100 0
-39 -268 0
-100 -268 0
39 100 268 0
c gate 269 -267 268 0
-267 -269 0
268 -269 0
267 -268 269 0
c gate 270 -266 269 0
-266 -270 0
269 -270 0
266 -269 270 0
c gate 271 35 -101 0
35 -271 0
-101 -271 0
-35 101 271 0
c gate 272 270 271 0
270 -272 0
271 -272 0
-270 -271 272 0
c gate 273 -262 -272 0
-262 -273 0
-272 -273 0
262 272 273 0
c gate 274 -260 273 0
-260 -274 0
273 -274 0
260 -273 274 0
c gate 275 -75 205 0
-75 -275 0
205 -275 0
75 -205 275 0
c gate 276 185 225 0
185 -276 0
225 -276 0
-185 -225 276 0
c gate 277 -275 -276 0
-275 -277 0
-276 -277 0
275 276 277 0
c gate 278 220 -277 0
220 -278 0
-277 -278 0
-220 277 278 0
c gate 279 240 -278 0
240 -279 0
-278 -279 0
-240 278 279 0
c gate 280 274 -279 0
274 -280 0
-279 -280 0
-274 279 280 0
c gate 281 -242 -274 0
-242 -281 0
-274 -281 0
242 274 281 0
c gate 282 -280 -281 0
-280 -282 0
-281 -282 0
280 281 282 0
c gate 283 -118 282 0
-118 -283 0
282 -283 0
118 -282 283 0
c gate 284 118 -282 0
118 -284 0
-282 -284 0
-118 282 284 0
c gate 285 -283 -284 0
-283 -285 0
-284 -285 0
283 284 285 0
c PO
-285 0
